15
2 1 1
3 1 2
4 2 3
5 2 5
6 5 8
7 1 7
7 3 2
7 5 5
8 1 9
8 4 1
8 5 8
8 6 6
9 0 10
9 1 7
9 2 7
10 2 5
10 3 8
10 4 4
11 0 8
11 1 10
11 2 5
11 5 8
11 6 5
11 7 1
11 9 9
11 10 2
12 0 7
12 1 7
12 3 8
12 4 5
12 5 8
12 6 10
12 9 1
12 11 9
13 0 6
13 1 8
13 3 10
13 6 1
13 7 1
13 10 7
13 11 6
13 12 10
14 0 2
14 1 2
14 3 2
14 6 8
14 8 3
14 9 1
14 11 1
